#       time        depth ve_stress_xx ve_stress_yy ve_stress_xy ve_stress_xx_old ve_stress_yy_old ve_stress_xy_old
           0        10000            0            0            0            0            0            0
           0        30000            0            0            0            0            0            0
           0        50000            0            0            0            0            0            0
           0        70000            0            0            0            0            0            0
           0        90000            0            0            0            0            0            0
        1000        10000        1e+06       -1e+06  -0.00390062        1e+06       -1e+06   -0.0039091
        1000        30000        1e+06       -1e+06   0.00183852        1e+06       -1e+06   0.00184428
        1000        50000        1e+06       -1e+06   0.00319353        1e+06       -1e+06   0.00319121
        1000        70000        1e+06       -1e+06  -0.00734891        1e+06       -1e+06  -0.00735175
        1000        90000        1e+06       -1e+06    0.0114256        1e+06       -1e+06    0.0114304
        2000        10000        1e+06       -1e+06  -0.00389148        1e+06       -1e+06  -0.00389996
        2000        30000        1e+06       -1e+06   0.00183482        1e+06       -1e+06   0.00184058
        2000        50000        1e+06       -1e+06   0.00319067        1e+06       -1e+06   0.00318835
        2000        70000        1e+06       -1e+06  -0.00734899        1e+06       -1e+06  -0.00735183
        2000        90000        1e+06       -1e+06    0.0114306        1e+06       -1e+06    0.0114354
